
******************************************************************************
This program contains Ipopt, a library for large-scale nonlinear optimization.
 Ipopt is released as open source code under the Eclipse Public License (EPL).
         For more information visit http://projects.coin-or.org/Ipopt

This version of Ipopt was compiled from source code available at
    https://github.com/IDAES/Ipopt as part of the Institute for the Design of
    Advanced Energy Systems Process Systems Engineering Framework (IDAES PSE
    Framework) Copyright (c) 2018-2019. See https://github.com/IDAES/idaes-pse.

This version of Ipopt was compiled using HSL, a collection of Fortran codes
    for large-scale scientific computation.  All technical papers, sales and
    publicity material resulting from use of the HSL codes within IPOPT must
    contain the following acknowledgement:
        HSL, a collection of Fortran codes for large-scale scientific
        computation. See http://www.hsl.rl.ac.uk.
******************************************************************************

This is Ipopt version 3.13.2, running with linear solver ma27.

Number of nonzeros in equality constraint Jacobian...:      808
Number of nonzeros in inequality constraint Jacobian.:        0
Number of nonzeros in Lagrangian Hessian.............:      702

Total number of variables............................:      351
                     variables with only lower bounds:      108
                variables with lower and upper bounds:      189
                     variables with only upper bounds:        0
Total number of equality constraints.................:      350
Total number of inequality constraints...............:        0
        inequality constraints with only lower bounds:        0
   inequality constraints with lower and upper bounds:        0
        inequality constraints with only upper bounds:        0

iter    objective    inf_pr   inf_du lg(mu)  ||d||  lg(rg) alpha_du alpha_pr  ls
   0  0.0000000e+00 4.84e-01 1.11e-16  -1.0 0.00e+00    -  0.00e+00 0.00e+00   0
   1  1.1393147e+00 8.68e-01 1.17e+05  -1.0 2.87e+05    -  2.76e-01 2.30e-01h  1
   2  1.3038380e+00 8.47e-01 1.15e+05  -1.0 2.46e+05    -  6.97e-01 1.97e-02h  1
   3  3.0617418e+00 7.19e-01 9.86e+04  -1.0 3.12e+05    -  7.24e-01 1.46e-01h  1
   4  3.6131153e+01 1.00e-01 2.99e+04  -1.0 2.80e+05    -  7.54e-01 9.90e-01h  1
   5  4.4984362e+01 1.38e-03 1.30e+03  -1.0 4.67e+04    -  9.54e-01 9.90e-01h  1
   6  4.5253264e+01 1.47e-05 1.65e+01  -1.0 1.38e+03    -  9.90e-01 9.90e-01h  1
   7  4.5253652e+01 1.46e-05 1.52e+07  -1.0 4.39e+02    -  9.90e-01 7.73e-03f  8
   8  4.5257182e+01 1.42e-05 2.98e+07  -1.0 1.03e+03    -  9.91e-01 3.09e-02f  6
   9  4.5369446e+01 1.17e-04 4.59e+05  -1.0 1.04e+03    -  1.00e+00 9.90e-01H  1
iter    objective    inf_pr   inf_du lg(mu)  ||d||  lg(rg) alpha_du alpha_pr  ls
  10  4.5368672e+01 1.11e-06 1.61e+07  -1.0 7.44e+00    -  1.00e+00 9.90e-01h  1
  11  4.5368674e+01 1.11e-08 1.61e+09  -1.0 1.68e-02    -  1.00e+00 9.90e-01h  1
  12  4.5368674e+01 1.11e-10 1.61e+11  -1.0 1.66e-04    -  1.00e+00 9.90e-01h  1
In iteration 12, 27 Slacks too small, adjusting variable bounds
  13  4.5368674e+01 1.10e-11 1.61e+13  -1.0 1.66e-06    -  1.00e+00 9.90e-01h  1
  14  4.5368674e+01 1.33e-12 1.17e-01  -1.0 1.81e-06    -  1.00e+00 1.00e+00h  1
  15  4.5368667e+01 7.41e-12 1.64e+13  -9.0 1.19e+03    -  9.97e-01 5.30e-05f 15
  16  4.5368664e+01 3.85e-12 1.65e+13  -9.0 1.03e+03    -  9.98e-01 3.05e-05f 16
  17  4.5368660e+01 5.35e-12 1.65e+13  -9.0 1.03e+03    -  1.00e+00 3.05e-05f 16
  18  4.5368659e+01 4.93e-12 1.65e+13  -9.0 1.03e+03    -  1.00e+00 1.53e-05f 17
  19  4.5368657e+01 5.40e-12 1.65e+13  -9.0 1.03e+03    -  1.00e+00 1.53e-05f 17
iter    objective    inf_pr   inf_du lg(mu)  ||d||  lg(rg) alpha_du alpha_pr  ls
  20  4.5256559e+01 1.03e-03 2.83e+06  -9.0 1.03e+03    -  1.00e+00 1.00e+00f  1
  21  4.5254700e+01 1.92e-09 6.21e-04  -9.0 1.69e+01    -  1.00e+00 1.00e+00h  1
  22  4.5254700e+01 6.38e-12 2.91e-11  -9.0 1.93e-04    -  1.00e+00 1.00e+00h  1

Number of Iterations....: 22

                                   (scaled)                 (unscaled)
Objective...............:   4.5254700103552196e+01    4.5254700103552196e+01
Dual infeasibility......:   2.9103830456733704e-11    2.9103830456733704e-11
Constraint violation....:   6.3775651426567492e-12    6.3775651426567492e-12
Complementarity.........:   9.0909090909097662e-10    9.0909090909097662e-10
Overall NLP error.......:   1.1041310867214563e-11    9.0909090909097662e-10


Number of objective function evaluations             = 134
Number of objective gradient evaluations             = 23
Number of equality constraint evaluations            = 134
Number of inequality constraint evaluations          = 0
Number of equality constraint Jacobian evaluations   = 23
Number of inequality constraint Jacobian evaluations = 0
Number of Lagrangian Hessian evaluations             = 22
Total CPU secs in IPOPT (w/o function evaluations)   =      0.051
Total CPU secs in NLP function evaluations           =      1.063

EXIT: Optimal Solution Found.
